c Standarized MaxSat Instance
c{
c "sha1sum": "b81615f2196966a1a5d7df1f8099b296da156372",
c "nvars": 42,
c "ncls": 840,
c "nhards": 0,
c "nhard_len_stats":
c    { "min": 0, "max": 0, "ave": 0.00,
c      "stddev": 0.00 },
c "nsofts": 840,
c "nsoft_len_stats":
c    { "min": 2, "max": 2, "ave": 2.00,
c      "stddev": 0.00 },
c "nsoft_wts": 10,
c "soft_wt_stats":
c    { "min": 1, "max": 10, "ave": 5.61,
c      "stddev": 2.87 }
c}
c------------------------------------------------------------
c File:  c-fat500-10.clq
c
c Source: Panos Pardalos pardalos@math.ufl.edu
c
c Reference: P. Berman and A. Pelc, Distributed Fault Diagnosis for
c            Multiprocessor Systems, Proceedings of the 20th Annual
c            International Symposium on Fault-Tolerant Computing
c            Newcastle, UK, 340-346 (1990)
c
p wcnf 42 840 4713
9 1 3 0
9 -1 -3 0
4 1 5 0
4 -1 -5 0
8 1 7 0
8 -1 -7 0
8 1 9 0
8 -1 -9 0
10 1 11 0
10 -1 -11 0
2 1 13 0
2 -1 -13 0
4 1 15 0
4 -1 -15 0
8 1 17 0
8 -1 -17 0
3 1 19 0
3 -1 -19 0
6 1 21 0
6 -1 -21 0
5 1 23 0
5 -1 -23 0
7 1 25 0
7 -1 -25 0
4 1 27 0
4 -1 -27 0
6 1 29 0
6 -1 -29 0
10 1 31 0
10 -1 -31 0
10 1 33 0
10 -1 -33 0
7 1 35 0
7 -1 -35 0
8 1 37 0
8 -1 -37 0
2 1 39 0
2 -1 -39 0
7 1 41 0
7 -1 -41 0
1 2 4 0
1 -2 -4 0
3 2 6 0
3 -2 -6 0
2 2 8 0
2 -2 -8 0
9 2 10 0
9 -2 -10 0
2 2 12 0
2 -2 -12 0
5 2 14 0
5 -2 -14 0
2 2 16 0
2 -2 -16 0
2 2 18 0
2 -2 -18 0
10 2 20 0
10 -2 -20 0
3 2 22 0
3 -2 -22 0
6 2 24 0
6 -2 -24 0
9 2 26 0
9 -2 -26 0
7 2 28 0
7 -2 -28 0
3 2 30 0
3 -2 -30 0
7 2 32 0
7 -2 -32 0
6 2 34 0
6 -2 -34 0
5 2 36 0
5 -2 -36 0
10 2 38 0
10 -2 -38 0
3 2 40 0
3 -2 -40 0
8 2 42 0
8 -2 -42 0
6 3 5 0
6 -3 -5 0
8 3 7 0
8 -3 -7 0
5 3 9 0
5 -3 -9 0
9 3 11 0
9 -3 -11 0
3 3 13 0
3 -3 -13 0
4 3 15 0
4 -3 -15 0
9 3 17 0
9 -3 -17 0
10 3 19 0
10 -3 -19 0
1 3 21 0
1 -3 -21 0
10 3 23 0
10 -3 -23 0
6 3 25 0
6 -3 -25 0
1 3 27 0
1 -3 -27 0
2 3 29 0
2 -3 -29 0
7 3 31 0
7 -3 -31 0
9 3 33 0
9 -3 -33 0
4 3 35 0
4 -3 -35 0
1 3 37 0
1 -3 -37 0
1 3 39 0
1 -3 -39 0
5 3 41 0
5 -3 -41 0
1 4 6 0
1 -4 -6 0
3 4 8 0
3 -4 -8 0
10 4 10 0
10 -4 -10 0
10 4 12 0
10 -4 -12 0
9 4 14 0
9 -4 -14 0
3 4 16 0
3 -4 -16 0
6 4 18 0
6 -4 -18 0
4 4 20 0
4 -4 -20 0
8 4 22 0
8 -4 -22 0
6 4 24 0
6 -4 -24 0
7 4 26 0
7 -4 -26 0
6 4 28 0
6 -4 -28 0
1 4 30 0
1 -4 -30 0
5 4 32 0
5 -4 -32 0
10 4 34 0
10 -4 -34 0
10 4 36 0
10 -4 -36 0
8 4 38 0
8 -4 -38 0
3 4 40 0
3 -4 -40 0
8 4 42 0
8 -4 -42 0
7 5 7 0
7 -5 -7 0
4 5 9 0
4 -5 -9 0
7 5 11 0
7 -5 -11 0
2 5 13 0
2 -5 -13 0
5 5 15 0
5 -5 -15 0
9 5 17 0
9 -5 -17 0
9 5 19 0
9 -5 -19 0
4 5 21 0
4 -5 -21 0
3 5 23 0
3 -5 -23 0
9 5 25 0
9 -5 -25 0
4 5 27 0
4 -5 -27 0
7 5 29 0
7 -5 -29 0
10 5 31 0
10 -5 -31 0
6 5 33 0
6 -5 -33 0
7 5 35 0
7 -5 -35 0
9 5 37 0
9 -5 -37 0
5 5 39 0
5 -5 -39 0
10 5 41 0
10 -5 -41 0
4 6 8 0
4 -6 -8 0
9 6 10 0
9 -6 -10 0
7 6 12 0
7 -6 -12 0
10 6 14 0
10 -6 -14 0
5 6 16 0
5 -6 -16 0
3 6 18 0
3 -6 -18 0
10 6 20 0
10 -6 -20 0
10 6 22 0
10 -6 -22 0
2 6 24 0
2 -6 -24 0
9 6 26 0
9 -6 -26 0
7 6 28 0
7 -6 -28 0
5 6 30 0
5 -6 -30 0
7 6 32 0
7 -6 -32 0
3 6 34 0
3 -6 -34 0
8 6 36 0
8 -6 -36 0
4 6 38 0
4 -6 -38 0
5 6 40 0
5 -6 -40 0
3 6 42 0
3 -6 -42 0
2 7 9 0
2 -7 -9 0
3 7 11 0
3 -7 -11 0
6 7 13 0
6 -7 -13 0
5 7 15 0
5 -7 -15 0
2 7 17 0
2 -7 -17 0
10 7 19 0
10 -7 -19 0
2 7 21 0
2 -7 -21 0
2 7 23 0
2 -7 -23 0
5 7 25 0
5 -7 -25 0
8 7 27 0
8 -7 -27 0
10 7 29 0
10 -7 -29 0
10 7 31 0
10 -7 -31 0
7 7 33 0
7 -7 -33 0
4 7 35 0
4 -7 -35 0
8 7 37 0
8 -7 -37 0
4 7 39 0
4 -7 -39 0
3 7 41 0
3 -7 -41 0
3 8 10 0
3 -8 -10 0
6 8 12 0
6 -8 -12 0
3 8 14 0
3 -8 -14 0
2 8 16 0
2 -8 -16 0
8 8 18 0
8 -8 -18 0
2 8 20 0
2 -8 -20 0
8 8 22 0
8 -8 -22 0
2 8 24 0
2 -8 -24 0
8 8 26 0
8 -8 -26 0
1 8 28 0
1 -8 -28 0
10 8 30 0
10 -8 -30 0
1 8 32 0
1 -8 -32 0
6 8 34 0
6 -8 -34 0
2 8 36 0
2 -8 -36 0
3 8 38 0
3 -8 -38 0
8 8 40 0
8 -8 -40 0
8 8 42 0
8 -8 -42 0
7 9 11 0
7 -9 -11 0
10 9 13 0
10 -9 -13 0
7 9 15 0
7 -9 -15 0
8 9 17 0
8 -9 -17 0
1 9 19 0
1 -9 -19 0
2 9 21 0
2 -9 -21 0
6 9 23 0
6 -9 -23 0
1 9 25 0
1 -9 -25 0
1 9 27 0
1 -9 -27 0
3 9 29 0
3 -9 -29 0
5 9 31 0
5 -9 -31 0
9 9 33 0
9 -9 -33 0
6 9 35 0
6 -9 -35 0
8 9 37 0
8 -9 -37 0
1 9 39 0
1 -9 -39 0
2 9 41 0
2 -9 -41 0
10 10 12 0
10 -10 -12 0
3 10 14 0
3 -10 -14 0
9 10 16 0
9 -10 -16 0
2 10 18 0
2 -10 -18 0
10 10 20 0
10 -10 -20 0
1 10 22 0
1 -10 -22 0
9 10 24 0
9 -10 -24 0
1 10 26 0
1 -10 -26 0
1 10 28 0
1 -10 -28 0
10 10 30 0
10 -10 -30 0
6 10 32 0
6 -10 -32 0
2 10 34 0
2 -10 -34 0
2 10 36 0
2 -10 -36 0
4 10 38 0
4 -10 -38 0
10 10 40 0
10 -10 -40 0
9 10 42 0
9 -10 -42 0
4 11 13 0
4 -11 -13 0
6 11 15 0
6 -11 -15 0
6 11 17 0
6 -11 -17 0
5 11 19 0
5 -11 -19 0
7 11 21 0
7 -11 -21 0
1 11 23 0
1 -11 -23 0
6 11 25 0
6 -11 -25 0
8 11 27 0
8 -11 -27 0
4 11 29 0
4 -11 -29 0
10 11 31 0
10 -11 -31 0
6 11 33 0
6 -11 -33 0
9 11 35 0
9 -11 -35 0
8 11 37 0
8 -11 -37 0
7 11 39 0
7 -11 -39 0
1 11 41 0
1 -11 -41 0
8 12 14 0
8 -12 -14 0
9 12 16 0
9 -12 -16 0
10 12 18 0
10 -12 -18 0
9 12 20 0
9 -12 -20 0
9 12 22 0
9 -12 -22 0
10 12 24 0
10 -12 -24 0
8 12 26 0
8 -12 -26 0
10 12 28 0
10 -12 -28 0
10 12 30 0
10 -12 -30 0
7 12 32 0
7 -12 -32 0
5 12 34 0
5 -12 -34 0
2 12 36 0
2 -12 -36 0
9 12 38 0
9 -12 -38 0
9 12 40 0
9 -12 -40 0
1 12 42 0
1 -12 -42 0
7 13 15 0
7 -13 -15 0
3 13 17 0
3 -13 -17 0
7 13 19 0
7 -13 -19 0
3 13 21 0
3 -13 -21 0
8 13 23 0
8 -13 -23 0
4 13 25 0
4 -13 -25 0
4 13 27 0
4 -13 -27 0
3 13 29 0
3 -13 -29 0
1 13 31 0
1 -13 -31 0
7 13 33 0
7 -13 -33 0
3 13 35 0
3 -13 -35 0
7 13 37 0
7 -13 -37 0
6 13 39 0
6 -13 -39 0
10 13 41 0
10 -13 -41 0
3 14 16 0
3 -14 -16 0
6 14 18 0
6 -14 -18 0
8 14 20 0
8 -14 -20 0
2 14 22 0
2 -14 -22 0
5 14 24 0
5 -14 -24 0
6 14 26 0
6 -14 -26 0
10 14 28 0
10 -14 -28 0
5 14 30 0
5 -14 -30 0
4 14 32 0
4 -14 -32 0
9 14 34 0
9 -14 -34 0
5 14 36 0
5 -14 -36 0
1 14 38 0
1 -14 -38 0
4 14 40 0
4 -14 -40 0
6 14 42 0
6 -14 -42 0
9 15 17 0
9 -15 -17 0
3 15 19 0
3 -15 -19 0
7 15 21 0
7 -15 -21 0
5 15 23 0
5 -15 -23 0
5 15 25 0
5 -15 -25 0
4 15 27 0
4 -15 -27 0
8 15 29 0
8 -15 -29 0
2 15 31 0
2 -15 -31 0
7 15 33 0
7 -15 -33 0
1 15 35 0
1 -15 -35 0
5 15 37 0
5 -15 -37 0
7 15 39 0
7 -15 -39 0
7 15 41 0
7 -15 -41 0
7 16 18 0
7 -16 -18 0
4 16 20 0
4 -16 -20 0
2 16 22 0
2 -16 -22 0
7 16 24 0
7 -16 -24 0
7 16 26 0
7 -16 -26 0
8 16 28 0
8 -16 -28 0
4 16 30 0
4 -16 -30 0
8 16 32 0
8 -16 -32 0
3 16 34 0
3 -16 -34 0
10 16 36 0
10 -16 -36 0
7 16 38 0
7 -16 -38 0
7 16 40 0
7 -16 -40 0
3 16 42 0
3 -16 -42 0
6 17 19 0
6 -17 -19 0
1 17 21 0
1 -17 -21 0
3 17 23 0
3 -17 -23 0
9 17 25 0
9 -17 -25 0
7 17 27 0
7 -17 -27 0
1 17 29 0
1 -17 -29 0
2 17 31 0
2 -17 -31 0
4 17 33 0
4 -17 -33 0
6 17 35 0
6 -17 -35 0
6 17 37 0
6 -17 -37 0
7 17 39 0
7 -17 -39 0
3 17 41 0
3 -17 -41 0
8 18 20 0
8 -18 -20 0
3 18 22 0
3 -18 -22 0
4 18 24 0
4 -18 -24 0
2 18 26 0
2 -18 -26 0
10 18 28 0
10 -18 -28 0
1 18 30 0
1 -18 -30 0
9 18 32 0
9 -18 -32 0
4 18 34 0
4 -18 -34 0
2 18 36 0
2 -18 -36 0
5 18 38 0
5 -18 -38 0
10 18 40 0
10 -18 -40 0
10 18 42 0
10 -18 -42 0
8 19 21 0
8 -19 -21 0
7 19 23 0
7 -19 -23 0
2 19 25 0
2 -19 -25 0
7 19 27 0
7 -19 -27 0
4 19 29 0
4 -19 -29 0
8 19 31 0
8 -19 -31 0
10 19 33 0
10 -19 -33 0
10 19 35 0
10 -19 -35 0
9 19 37 0
9 -19 -37 0
3 19 39 0
3 -19 -39 0
8 19 41 0
8 -19 -41 0
6 20 22 0
6 -20 -22 0
3 20 24 0
3 -20 -24 0
10 20 26 0
10 -20 -26 0
10 20 28 0
10 -20 -28 0
9 20 30 0
9 -20 -30 0
5 20 32 0
5 -20 -32 0
6 20 34 0
6 -20 -34 0
2 20 36 0
2 -20 -36 0
3 20 38 0
3 -20 -38 0
9 20 40 0
9 -20 -40 0
5 20 42 0
5 -20 -42 0
5 21 23 0
5 -21 -23 0
9 21 25 0
9 -21 -25 0
5 21 27 0
5 -21 -27 0
3 21 29 0
3 -21 -29 0
2 21 31 0
2 -21 -31 0
7 21 33 0
7 -21 -33 0
8 21 35 0
8 -21 -35 0
2 21 37 0
2 -21 -37 0
7 21 39 0
7 -21 -39 0
5 21 41 0
5 -21 -41 0
9 22 24 0
9 -22 -24 0
8 22 26 0
8 -22 -26 0
2 22 28 0
2 -22 -28 0
3 22 30 0
3 -22 -30 0
5 22 32 0
5 -22 -32 0
2 22 34 0
2 -22 -34 0
2 22 36 0
2 -22 -36 0
4 22 38 0
4 -22 -38 0
4 22 40 0
4 -22 -40 0
10 22 42 0
10 -22 -42 0
10 23 25 0
10 -23 -25 0
7 23 27 0
7 -23 -27 0
9 23 29 0
9 -23 -29 0
9 23 31 0
9 -23 -31 0
5 23 33 0
5 -23 -33 0
4 23 35 0
4 -23 -35 0
4 23 37 0
4 -23 -37 0
7 23 39 0
7 -23 -39 0
7 23 41 0
7 -23 -41 0
3 24 26 0
3 -24 -26 0
2 24 28 0
2 -24 -28 0
1 24 30 0
1 -24 -30 0
2 24 32 0
2 -24 -32 0
7 24 34 0
7 -24 -34 0
4 24 36 0
4 -24 -36 0
3 24 38 0
3 -24 -38 0
4 24 40 0
4 -24 -40 0
1 24 42 0
1 -24 -42 0
5 25 27 0
5 -25 -27 0
10 25 29 0
10 -25 -29 0
6 25 31 0
6 -25 -31 0
3 25 33 0
3 -25 -33 0
7 25 35 0
7 -25 -35 0
8 25 37 0
8 -25 -37 0
5 25 39 0
5 -25 -39 0
2 25 41 0
2 -25 -41 0
9 26 28 0
9 -26 -28 0
7 26 30 0
7 -26 -30 0
6 26 32 0
6 -26 -32 0
3 26 34 0
3 -26 -34 0
6 26 36 0
6 -26 -36 0
5 26 38 0
5 -26 -38 0
9 26 40 0
9 -26 -40 0
4 26 42 0
4 -26 -42 0
3 27 29 0
3 -27 -29 0
4 27 31 0
4 -27 -31 0
8 27 33 0
8 -27 -33 0
7 27 35 0
7 -27 -35 0
10 27 37 0
10 -27 -37 0
4 27 39 0
4 -27 -39 0
9 27 41 0
9 -27 -41 0
2 28 30 0
2 -28 -30 0
5 28 32 0
5 -28 -32 0
1 28 34 0
1 -28 -34 0
8 28 36 0
8 -28 -36 0
8 28 38 0
8 -28 -38 0
3 28 40 0
3 -28 -40 0
2 28 42 0
2 -28 -42 0
9 29 31 0
9 -29 -31 0
8 29 33 0
8 -29 -33 0
1 29 35 0
1 -29 -35 0
5 29 37 0
5 -29 -37 0
10 29 39 0
10 -29 -39 0
8 29 41 0
8 -29 -41 0
3 30 32 0
3 -30 -32 0
5 30 34 0
5 -30 -34 0
9 30 36 0
9 -30 -36 0
1 30 38 0
1 -30 -38 0
1 30 40 0
1 -30 -40 0
4 30 42 0
4 -30 -42 0
4 31 33 0
4 -31 -33 0
7 31 35 0
7 -31 -35 0
9 31 37 0
9 -31 -37 0
2 31 39 0
2 -31 -39 0
1 31 41 0
1 -31 -41 0
1 32 34 0
1 -32 -34 0
5 32 36 0
5 -32 -36 0
8 32 38 0
8 -32 -38 0
7 32 40 0
7 -32 -40 0
5 32 42 0
5 -32 -42 0
2 33 35 0
2 -33 -35 0
6 33 37 0
6 -33 -37 0
6 33 39 0
6 -33 -39 0
6 33 41 0
6 -33 -41 0
6 34 36 0
6 -34 -36 0
4 34 38 0
4 -34 -38 0
4 34 40 0
4 -34 -40 0
9 34 42 0
9 -34 -42 0
5 35 37 0
5 -35 -37 0
2 35 39 0
2 -35 -39 0
7 35 41 0
7 -35 -41 0
6 36 38 0
6 -36 -38 0
7 36 40 0
7 -36 -40 0
6 36 42 0
6 -36 -42 0
3 37 39 0
3 -37 -39 0
9 37 41 0
9 -37 -41 0
1 38 40 0
1 -38 -40 0
1 38 42 0
1 -38 -42 0
10 39 41 0
10 -39 -41 0
2 40 42 0
2 -40 -42 0
